N = 70;
M = 152;
Edge_Start = [1, 1, 2, 2, 3, 3, 3, 4, 4, 5, 5, 6, 7, 7, 7, 8, 8, 9, 9, 9, 10, 10, 11, 12, 13, 13, 14, 14, 14, 15, 15, 15, 16, 16, 16, 17, 17, 17, 18, 18, 18, 19, 19, 19, 20, 20, 20, 21, 22, 23, 23, 24, 24, 25, 25, 25, 26, 26, 27, 27, 27, 28, 28, 28, 29, 29, 29, 30, 30, 31, 32, 32, 33, 33, 34, 34, 34, 35, 35, 36, 36, 37, 37, 37, 38, 39, 39, 40, 40, 41, 41, 42, 42, 42, 43, 43, 44, 44, 45, 45, 46, 46, 47, 48, 48, 49, 49, 49, 50, 51, 51, 52, 52, 52, 53, 53, 54, 55, 55, 56, 56, 56, 57, 57, 57, 58, 58, 58, 59, 60, 60, 61, 61, 62, 62, 63, 63, 64, 64, 64, 65, 65, 66, 66, 66, 67, 67, 68, 68, 68, 69, 70];
Edge_End = [2, 12, 1, 3, 2, 4, 14, 3, 5, 4, 16, 7, 6, 8, 18, 7, 9, 8, 10, 20, 9, 11, 10, 1, 14, 25, 3, 13, 15, 14, 16, 27, 5, 15, 17, 16, 18, 29, 7, 17, 19, 18, 20, 31, 9, 19, 21, 20, 23, 22, 35, 25, 36, 13, 24, 26, 25, 27, 15, 26, 28, 27, 29, 40, 17, 28, 30, 29, 42, 19, 33, 44, 32, 34, 33, 35, 46, 23, 34, 24, 37, 36, 38, 49, 37, 40, 51, 28, 39, 42, 53, 30, 41, 43, 42, 55, 32, 45, 44, 57, 34, 47, 46, 49, 60, 37, 48, 50, 49, 39, 52, 51, 53, 64, 41, 52, 66, 43, 56, 55, 57, 68, 45, 56, 58, 57, 59, 70, 58, 48, 61, 60, 62, 61, 63, 62, 64, 52, 63, 65, 64, 66, 54, 65, 67, 66, 68, 56, 67, 69, 68, 58];
L = [4, 3, 4, 7, 7, 15, 18, 15, 8, 8, 2, 17, 17, 6, 7, 6, 15, 15, 2, 19, 2, 10, 10, 3, 6, 16, 18, 6, 3, 3, 18, 9, 2, 18, 6, 6, 19, 3, 7, 19, 3, 3, 13, 7, 19, 13, 17, 17, 5, 5, 13, 6, 16, 16, 6, 9, 9, 12, 9, 12, 2, 2, 14, 16, 3, 14, 17, 17, 14, 7, 16, 8, 16, 18, 18, 8, 15, 13, 8, 16, 12, 12, 5, 8, 5, 4, 5, 16, 4, 5, 17, 14, 5, 11, 11, 1, 8, 11, 11, 5, 15, 6, 6, 9, 14, 8, 9, 1, 1, 5, 7, 7, 14, 18, 17, 14, 17, 1, 5, 5, 7, 15, 5, 7, 5, 5, 4, 10, 4, 14, 1, 1, 13, 13, 4, 4, 9, 18, 9, 13, 13, 3, 17, 3, 17, 17, 1, 15, 1, 9, 9, 10];
T = [3, 3, 3, 10, 10, 16, 15, 16, 12, 12, 8, 22, 22, 2, 21, 2, 11, 11, 10, 21, 10, 6, 6, 3, 2, 7, 15, 2, 1, 1, 18, 12, 8, 18, 12, 12, 13, 1, 21, 13, 12, 12, 12, 2, 21, 12, 18, 18, 13, 13, 21, 14, 17, 7, 14, 4, 4, 10, 12, 10, 1, 1, 11, 4, 1, 11, 20, 20, 20, 2, 12, 1, 12, 28, 28, 6, 12, 21, 6, 17, 10, 10, 6, 12, 6, 8, 1, 4, 8, 4, 20, 20, 4, 10, 10, 1, 1, 6, 6, 12, 12, 1, 1, 12, 8, 12, 12, 1, 1, 1, 9, 9, 15, 8, 20, 15, 23, 1, 1, 1, 11, 9, 12, 11, 6, 6, 9, 15, 9, 8, 1, 1, 23, 23, 9, 9, 3, 8, 3, 14, 14, 1, 23, 1, 12, 12, 2, 9, 2, 7, 7, 15];
Lower_Bound = [0, 3, 13, 29, 42, 110, 88, 90, 101, 112, 117, 4, 30, 28, 29, 47, 54, 68, 79, 91, 109, 215, 202, 51, 38, 42, 43, 42, 53, 73, 82, 135, 147, 177, 181, 68, 78, 84, 55, 46, 97, 96, 103, 134, 128, 187, 188, 102, 90, 91, 55, 64, 80, 111, 104, 105, 117, 122, 131, 108, 109, 84, 75, 73, 86, 87, 100, 101, 108, 137];
Upper_Bound = [8, 11, 20, 45, 57, 119, 92, 99, 105, 113, 121, 9, 40, 31, 30, 48, 68, 72, 89, 95, 111, 221, 203, 56, 48, 45, 50, 43, 55, 76, 83, 136, 149, 186, 183, 69, 85, 86, 58, 49, 98, 101, 110, 137, 129, 199, 192, 109, 91, 98, 66, 74, 82, 113, 107, 106, 124, 123, 132, 137, 112, 93, 83, 75, 89, 89, 108, 107, 109, 142];
Start = 1;
End = 70;
Time = 142;
